\ENCODING=ISO-8859-1
\Problem name: IloCplex

Minimize
 obj: x(0) + 2 x(3) + 2 x(4) + 2 x(5) + x(6) + 0 z(0)(0) + z(1)(0) + 0 z(1)(1)
      + 0 z(2)(2) + 2 z(3)(0) + 2 z(3)(1) + z(3)(2) + 0 z(3)(3) + 2 z(4)(0)
      + 3 z(4)(1) + z(4)(2) + 3 z(4)(3) + 0 z(4)(4) + z(5)(0) + 2 z(5)(1)
      + 5 z(5)(3) + 4 z(5)(4) + 0 z(5)(5) + 2 z(6)(0) + 3 z(6)(1) + 5 z(6)(3)
      + 5 z(6)(4) + 5 z(6)(5) + 0 z(6)(6) + z(7)(0) + z(7)(1) + 3 z(7)(3)
      + 2 z(7)(4) + 3 z(7)(5) + 3 z(7)(6) + 0 z(7)(7) + z(8)(0) + z(8)(1)
      + 3 z(8)(3) + 2 z(8)(4) + 3 z(8)(5) + 3 z(8)(6) + 2 z(8)(7) + 0 z(8)(8)
      + z(9)(0) + z(9)(1) + 3 z(9)(3) + 2 z(9)(4) + 3 z(9)(5) + 3 z(9)(6)
      + 2 z(9)(7) + 2 z(9)(8) + 0 z(9)(9) + z(10)(0) + z(10)(1) + 3 z(10)(3)
      + 2 z(10)(4) + 3 z(10)(5) + 3 z(10)(6) + 2 z(10)(7) + 2 z(10)(8)
      + 2 z(10)(9) + 0 z(10)(10)
Subject To
 lambda(0): x(3) + x(4)  = 1
 lambda(1): x(1) + x(4) + x(6)  = 1
 lambda(2): x(0) + x(5)  = 1
 lambda(3): x(2)  = 1
 lambda(4): x(3) + x(5) + x(6) + x(7) + x(8) + x(9) + x(10)  = 1
 mu(0):     x(0) + x(1) - z(1)(0) <= 1
 mu(1):     x(0) + x(2) - z(2)(0) <= 1
 mu(2):     x(0) + x(3) - z(3)(0) <= 1
 mu(3):     x(0) + x(4) - z(4)(0) <= 1
 mu(4):     x(0) + x(5) - z(5)(0) <= 1
 mu(5):     x(0) + x(6) - z(6)(0) <= 1
 mu(6):     x(0) + x(7) - z(7)(0) <= 1
 mu(7):     x(0) + x(8) - z(8)(0) <= 1
 mu(8):     x(0) + x(9) - z(9)(0) <= 1
 mu(9):     x(0) + x(10) - z(10)(0) <= 1
 mu(10):    x(1) + x(2) - z(2)(1) <= 1
 mu(11):    x(1) + x(3) - z(3)(1) <= 1
 mu(12):    x(1) + x(4) - z(4)(1) <= 1
 mu(13):    x(1) + x(5) - z(5)(1) <= 1
 mu(14):    x(1) + x(6) - z(6)(1) <= 1
 mu(15):    x(1) + x(7) - z(7)(1) <= 1
 mu(16):    x(1) + x(8) - z(8)(1) <= 1
 mu(17):    x(1) + x(9) - z(9)(1) <= 1
 mu(18):    x(1) + x(10) - z(10)(1) <= 1
 mu(19):    x(2) + x(3) - z(3)(2) <= 1
 mu(20):    x(2) + x(4) - z(4)(2) <= 1
 mu(21):    x(2) + x(5) - z(5)(2) <= 1
 mu(22):    x(2) + x(6) - z(6)(2) <= 1
 mu(23):    x(2) + x(7) - z(7)(2) <= 1
 mu(24):    x(2) + x(8) - z(8)(2) <= 1
 mu(25):    x(2) + x(9) - z(9)(2) <= 1
 mu(26):    x(2) + x(10) - z(10)(2) <= 1
 mu(27):    x(3) + x(4) - z(4)(3) <= 1
 mu(28):    x(3) + x(5) - z(5)(3) <= 1
 mu(29):    x(3) + x(6) - z(6)(3) <= 1
 mu(30):    x(3) + x(7) - z(7)(3) <= 1
 mu(31):    x(3) + x(8) - z(8)(3) <= 1
 mu(32):    x(3) + x(9) - z(9)(3) <= 1
 mu(33):    x(3) + x(10) - z(10)(3) <= 1
 mu(34):    x(4) + x(5) - z(5)(4) <= 1
 mu(35):    x(4) + x(6) - z(6)(4) <= 1
 mu(36):    x(4) + x(7) - z(7)(4) <= 1
 mu(37):    x(4) + x(8) - z(8)(4) <= 1
 mu(38):    x(4) + x(9) - z(9)(4) <= 1
 mu(39):    x(4) + x(10) - z(10)(4) <= 1
 mu(40):    x(5) + x(6) - z(6)(5) <= 1
 mu(41):    x(5) + x(7) - z(7)(5) <= 1
 mu(42):    x(5) + x(8) - z(8)(5) <= 1
 mu(43):    x(5) + x(9) - z(9)(5) <= 1
 mu(44):    x(5) + x(10) - z(10)(5) <= 1
 mu(45):    x(6) + x(7) - z(7)(6) <= 1
 mu(46):    x(6) + x(8) - z(8)(6) <= 1
 mu(47):    x(6) + x(9) - z(9)(6) <= 1
 mu(48):    x(6) + x(10) - z(10)(6) <= 1
 mu(49):    x(7) + x(8) - z(8)(7) <= 1
 mu(50):    x(7) + x(9) - z(9)(7) <= 1
 mu(51):    x(7) + x(10) - z(10)(7) <= 1
 mu(52):    x(8) + x(9) - z(9)(8) <= 1
 mu(53):    x(8) + x(10) - z(10)(8) <= 1
 mu(54):    x(9) + x(10) - z(10)(9) <= 1
 gamma(0):  - x(0) + z(3)(0) + z(4)(0)  = 0
 gamma(1):  - x(1) + z(3)(1) + z(4)(1)  = 0
 gamma(2):  - x(2) + z(3)(2) + z(4)(2)  = 0
 gamma(3):  - x(5) + z(5)(3) + z(5)(4)  = 0
 gamma(4):  - x(6) + z(6)(3) + z(6)(4)  = 0
 gamma(5):  - x(7) + z(7)(3) + z(7)(4)  = 0
 gamma(6):  - x(8) + z(8)(3) + z(8)(4)  = 0
 gamma(7):  - x(9) + z(9)(3) + z(9)(4)  = 0
 gamma(8):  - x(10) + z(10)(3) + z(10)(4)  = 0
 gamma(9):  - x(0) + z(1)(0) + z(4)(0) + z(6)(0)  = 0
 gamma(10): - x(2) + z(2)(1) + z(4)(2) + z(6)(2)  = 0
 gamma(11): - x(3) + z(3)(1) + z(4)(3) + z(6)(3)  = 0
 gamma(12): - x(5) + z(5)(1) + z(5)(4) + z(6)(5)  = 0
 gamma(13): - x(7) + z(7)(1) + z(7)(4) + z(7)(6)  = 0
 gamma(14): - x(8) + z(8)(1) + z(8)(4) + z(8)(6)  = 0
 gamma(15): - x(9) + z(9)(1) + z(9)(4) + z(9)(6)  = 0
 gamma(16): - x(10) + z(10)(1) + z(10)(4) + z(10)(6)  = 0
 gamma(17): - x(1) + z(1)(0) + z(5)(1)  = 0
 gamma(18): - x(2) + z(2)(0) + z(5)(2)  = 0
 gamma(19): - x(3) + z(3)(0) + z(5)(3)  = 0
 gamma(20): - x(4) + z(4)(0) + z(5)(4)  = 0
 gamma(21): - x(6) + z(6)(0) + z(6)(5)  = 0
 gamma(22): - x(7) + z(7)(0) + z(7)(5)  = 0
 gamma(23): - x(8) + z(8)(0) + z(8)(5)  = 0
 gamma(24): - x(9) + z(9)(0) + z(9)(5)  = 0
 gamma(25): - x(10) + z(10)(0) + z(10)(5)  = 0
 gamma(26): - x(0) + z(2)(0)  = 0
 gamma(27): - x(1) + z(2)(1)  = 0
 gamma(28): - x(3) + z(3)(2)  = 0
 gamma(29): - x(4) + z(4)(2)  = 0
 gamma(30): - x(5) + z(5)(2)  = 0
 gamma(31): - x(6) + z(6)(2)  = 0
 gamma(32): - x(7) + z(7)(2)  = 0
 gamma(33): - x(8) + z(8)(2)  = 0
 gamma(34): - x(9) + z(9)(2)  = 0
 gamma(35): - x(10) + z(10)(2)  = 0
 gamma(36): - x(0) + z(3)(0) + z(5)(0) + z(6)(0) + z(7)(0) + z(8)(0) + z(9)(0)
            + z(10)(0)  = 0
 gamma(37): - x(1) + z(3)(1) + z(5)(1) + z(6)(1) + z(7)(1) + z(8)(1) + z(9)(1)
            + z(10)(1)  = 0
 gamma(38): - x(2) + z(3)(2) + z(5)(2) + z(6)(2) + z(7)(2) + z(8)(2) + z(9)(2)
            + z(10)(2)  = 0
 gamma(39): - x(4) + z(4)(3) + z(5)(4) + z(6)(4) + z(7)(4) + z(8)(4) + z(9)(4)
            + z(10)(4)  = 0
Bounds
 0 <= x(0) <= 1
 0 <= x(1) <= 1
 0 <= x(2) <= 1
 0 <= x(3) <= 1
 0 <= x(4) <= 1
 0 <= x(5) <= 1
 0 <= x(6) <= 1
 0 <= x(7) <= 1
 0 <= x(8) <= 1
 0 <= x(9) <= 1
 0 <= x(10) <= 1
 0 <= z(0)(0) <= 1
 0 <= z(1)(0) <= 1
 0 <= z(1)(1) <= 1
 0 <= z(2)(0) <= 1
 0 <= z(2)(1) <= 1
 0 <= z(2)(2) <= 1
 0 <= z(3)(0) <= 1
 0 <= z(3)(1) <= 1
 0 <= z(3)(2) <= 1
 0 <= z(3)(3) <= 1
 0 <= z(4)(0) <= 1
 0 <= z(4)(1) <= 1
 0 <= z(4)(2) <= 1
 0 <= z(4)(3) <= 1
 0 <= z(4)(4) <= 1
 0 <= z(5)(0) <= 1
 0 <= z(5)(1) <= 1
 0 <= z(5)(2) <= 1
 0 <= z(5)(3) <= 1
 0 <= z(5)(4) <= 1
 0 <= z(5)(5) <= 1
 0 <= z(6)(0) <= 1
 0 <= z(6)(1) <= 1
 0 <= z(6)(2) <= 1
 0 <= z(6)(3) <= 1
 0 <= z(6)(4) <= 1
 0 <= z(6)(5) <= 1
 0 <= z(6)(6) <= 1
 0 <= z(7)(0) <= 1
 0 <= z(7)(1) <= 1
 0 <= z(7)(2) <= 1
 0 <= z(7)(3) <= 1
 0 <= z(7)(4) <= 1
 0 <= z(7)(5) <= 1
 0 <= z(7)(6) <= 1
 0 <= z(7)(7) <= 1
 0 <= z(8)(0) <= 1
 0 <= z(8)(1) <= 1
 0 <= z(8)(2) <= 1
 0 <= z(8)(3) <= 1
 0 <= z(8)(4) <= 1
 0 <= z(8)(5) <= 1
 0 <= z(8)(6) <= 1
 0 <= z(8)(7) <= 1
 0 <= z(8)(8) <= 1
 0 <= z(9)(0) <= 1
 0 <= z(9)(1) <= 1
 0 <= z(9)(2) <= 1
 0 <= z(9)(3) <= 1
 0 <= z(9)(4) <= 1
 0 <= z(9)(5) <= 1
 0 <= z(9)(6) <= 1
 0 <= z(9)(7) <= 1
 0 <= z(9)(8) <= 1
 0 <= z(9)(9) <= 1
 0 <= z(10)(0) <= 1
 0 <= z(10)(1) <= 1
 0 <= z(10)(2) <= 1
 0 <= z(10)(3) <= 1
 0 <= z(10)(4) <= 1
 0 <= z(10)(5) <= 1
 0 <= z(10)(6) <= 1
 0 <= z(10)(7) <= 1
 0 <= z(10)(8) <= 1
 0 <= z(10)(9) <= 1
 0 <= z(10)(10) <= 1
End
